Using license file /home/anupa/gurobi.lic
Academic license - for non-commercial use only

Gurobi Optimizer version 9.0.0 build v9.0.0rc2 (linux64)
Optimize a model with 19 rows, 26 columns and 55 nonzeros
Model fingerprint: 0xc6e69c49
Model has 1 general constraint
Variable types: 26 continuous, 0 integer (0 binary)
Coefficient statistics:
  Matrix range     [8e-02, 1e+04]
  Objective range  [1e+00, 1e+00]
  Bounds range     [1e+00, 3e+04]
  RHS range        [1e+00, 1e+00]

---------------------------------------------------------------------------
Multi-objectives: starting optimization with 2 objectives ... 
---------------------------------------------------------------------------

Multi-objectives: applying initial presolve ...
---------------------------------------------------------------------------

Presolve removed 4 rows and 2 columns
Presolve time: 0.00s
Presolved: 15 rows and 24 columns
---------------------------------------------------------------------------

Multi-objectives: optimize objective 1 (max_mem) ...
---------------------------------------------------------------------------

Presolve removed 6 rows and 8 columns
Presolve time: 0.00s
Presolved: 9 rows, 16 columns, 30 nonzeros
Presolved model has 2 SOS constraint(s)
Variable types: 14 continuous, 2 integer (2 binary)

Root relaxation: objective 4.809332e+03, 9 iterations, 0.00 seconds

    Nodes    |    Current Node    |     Objective Bounds      |     Work
 Expl Unexpl |  Obj  Depth IntInf | Incumbent    BestBd   Gap | It/Node Time

*    0     0               0    4809.3320312 4809.33203  0.00%     -    0s

Explored 0 nodes (9 simplex iterations) in 0.00 seconds
Thread count was 12 (of 12 available processors)

Solution count 1: 4809.33 

Optimal solution found (tolerance 1.00e-04)
Best objective 4.809332031250e+03, best bound 4.809332031250e+03, gap 0.0000%
---------------------------------------------------------------------------

Multi-objectives: optimize objective 2 (tot_mem) ...
---------------------------------------------------------------------------


Loaded user MIP start with objective 10194.7

Presolve removed 16 rows and 24 columns
Presolve time: 0.00s
Presolve: All rows and columns removed

Explored 0 nodes (0 simplex iterations) in 0.00 seconds
Thread count was 1 (of 12 available processors)

Solution count 1: 10194.7 

Optimal solution found (tolerance 1.00e-04)
Best objective 1.019466406250e+04, best bound 1.019466406250e+04, gap 0.0000%

---------------------------------------------------------------------------
Multi-objectives: solved in 0.00 seconds, solution count 2

--------------------------------------------------
Model update took: 3.4332275390625e-05 seconds
Model optimize took: 0.0022859573364257812 seconds
--------------------------------------------------

Solution quality statistics for model netmon :
  Maximum violation:
    Bound       : 0.00000000e+00
    Constraint  : 1.13686838e-13 (accuracy_1_sk_1[1])
    Integrality : 0.00000000e+00

Sketch (0) (cm: eps0: 0.03125, del0: 0.05, min_mem: 0.33984375)
Par: 1, Rows: 3
0.000    0.000    1.000    
Total frac: 1.000

Sketch (1) (cm: eps0: 3.125e-06, del0: 0.05, min_mem: 3397.85546875)
Par: 1, Rows: 3
0.472    0.056    0.472    
Total frac: 1.000

Sketch (2) (cm: eps0: 0.625, del0: 0.025, min_mem: 0.01953125)
Par: 1, Rows: 4
0.000    0.000    1.000    
Total frac: 1.000

Device (0) cpu_1:
Rows total: 1.4155437185862867
Mem total: 4809.812965453125

Device (1) p4_1:
Rows total: 0.16923560665907159
Mem total: 575.0381315937502

Device (2) cpu_2:
Rows total: 8.415220674754643
Mem total: 4809.812965453125
--------------------------------------------------
Changed value of parameter NonConvex to 2
   Prev: -1  Min: -1  Max: 2  Default: -1
Changed value of parameter NonConvex to 2
   Prev: -1  Min: -1  Max: 2  Default: -1

Throughput: 56.00000000000043 Mpps, ns per packet: 17.85714285714272
Resources: 113.19654072005339

Sketch (0) (cm: eps0: 0.03125, del0: 0.05, min_mem: 0.33984375)
Par: 1, Rows: 3
0.000    0.000    1.000    
Total frac: 1.000

Sketch (1) (cm: eps0: 3.125e-06, del0: 0.05, min_mem: 3397.85546875)
Par: 1, Rows: 3
0.472    0.056    0.472    
Total frac: 1.000

Sketch (2) (cm: eps0: 0.625, del0: 0.025, min_mem: 0.01953125)
Par: 1, Rows: 4
0.000    0.000    1.000    
Total frac: 1.000

Device (0) cpu_1:
cores_sketch: 1.0, cores_dpdk: 2.0
Rows total: 1.4155437185862867
Mem total: 4809.812965453125
Throughput: 56.00000000000043

Device (1) p4_1:
Rows total: 0.16923560665907159
Mem total: 575.0381315937502
Throughput: 148.0

Device (2) cpu_2:
cores_sketch: 5.000000000000001, cores_dpdk: 1.9999999999999993
Rows total: 8.415220674754643
Mem total: 4809.812965453125
Throughput: 56.00000000000043
--------------------------------------------------
